20 965
525 7 445 7 264 7 63 9 889 11 721 18
530 7 454 10
528 7 485 7 368 7 122 9 951 13
528 7 485 7 368 7 122 9 951 13
528 7 485 7 368 7 122 9 951 13
538 7 516 7 463 11
538 7 516 7 463 11
538 7 516 7 463 11
520 7 441 7 296 7 180 12
525 7 479 7 358 7 198 9 24 11 849 15 693 20 574 27
525 7 479 7 355 7 106 9 927 13
525 7 502 7 412 7 255 9 80 11 874 18
525 7 502 7 412 7 255 9 80 11 874 18
525 7 502 7 412 7 255 9 80 11 874 18
533 7
533 7
533 7
533 7
533 7
533 7
